10 33 6 22 60 10 1
0 677908 6150220 677908 6150220 0
1 545244 6157347 681736 6202205 13
2 533203 6173313 701138 6151297 13
3 562307 6223347 652039 6171578 12
4 602378 6102041 715238 6169802 3
5 548134 6158204 719124 6184427 12
6 525924 6100351 723486 6178632 13
7 521959 6153840 723734 6174878 5
8 534033 6225018 719290 6179227 4
9 615509 6254278 726163 6176155 10
10 530279 6147994 701535 6149745 15


